min: c;

c = 2.85557507785144 * u2_t7_h3 + 3.6284778910875 * u2_t7_h4 + 3.25955933157492 * u2_t2_h5 + 3.25955933157492 * u2_t3_h5 + 3.25955933157492 * u2_t7_h5 + 3.65580697351066 * u2_t2_h6 + 3.65580697351066 * u2_t3_h6 + 3.65580697351066 * u2_t4_h6 + 3.65580697351066 * u2_t7_h6 + 3.65580697351066 * u2_t10_h6 + 4.03997505743875 * u2_t2_h7 + 4.03997505743875 * u2_t3_h7 + 4.03997505743875 * u2_t4_h7 + 4.03997505743875 * u2_t7_h7 + 4.03997505743875 * u2_t10_h7 + 5.78200708237994 * u2_t2_h8 + 5.78200708237994 * u2_t3_h8 + 5.78200708237994 * u2_t4_h8 + 5.78200708237994 * u2_t7_h8 + 5.78200708237994 * u2_t10_h8 + 4.5195735669219 * u2_t2_h9 + 4.5195735669219 * u2_t3_h9 + 4.5195735669219 * u2_t4_h9 + 4.5195735669219 * u2_t7_h9 + 4.5195735669219 * u2_t10_h9 + 5.87467272789969 * u2_t2_h10 + 5.87467272789969 * u2_t3_h10 + 5.87467272789969 * u2_t4_h10 + 5.87467272789969 * u2_t7_h10 + 5.87467272789969 * u2_t10_h10 + 4.23421487277965 * u2_t1_h11 + 4.23421487277965 * u2_t2_h11 + 4.23421487277965 * u2_t3_h11 + 4.23421487277965 * u2_t4_h11 + 4.23421487277965 * u2_t7_h11 + 4.23421487277965 * u2_t10_h11 + 5.78214568118539 * u2_t1_h12 + 5.78214568118539 * u2_t3_h12 + 5.78214568118539 * u2_t4_h12 + 5.78214568118539 * u2_t7_h12 + 4.08040834897188 * u2_t1_h13 + 4.08040834897188 * u2_t3_h13 + 4.08040834897188 * u2_t4_h13 + 4.08040834897188 * u2_t7_h13 + 4.08040834897188 * u2_t9_h13 + 5.3294951095193 * u2_t1_h14 + 5.3294951095193 * u2_t3_h14 + 5.3294951095193 * u2_t4_h14 + 5.3294951095193 * u2_t7_h14 + 5.3294951095193 * u2_t9_h14 + 6.63399989722173 * u2_t1_h15 + 6.63399989722173 * u2_t3_h15 + 6.63399989722173 * u2_t4_h15 + 6.63399989722173 * u2_t7_h15 + 6.63399989722173 * u2_t9_h15 + 5.95938014570468 * u2_t1_h16 + 5.95938014570468 * u2_t3_h16 + 5.95938014570468 * u2_t4_h16 + 5.95938014570468 * u2_t7_h16 + 5.95938014570468 * u2_t9_h16 + 6.67148994651973 * u2_t1_h17 + 6.67148994651973 * u2_t3_h17 + 6.67148994651973 * u2_t4_h17 + 6.67148994651973 * u2_t7_h17 + 6.67148994651973 * u2_t9_h17 + 6.89190265563253 * u2_t1_h18 + 6.89190265563253 * u2_t3_h18 + 6.89190265563253 * u2_t4_h18 + 6.89190265563253 * u2_t6_h18 + 6.89190265563253 * u2_t7_h18 + 5.7594990002889 * u2_t1_h19 + 5.7594990002889 * u2_t3_h19 + 5.7594990002889 * u2_t4_h19 + 5.7594990002889 * u2_t5_h19 + 5.7594990002889 * u2_t6_h19 + 5.7594990002889 * u2_t7_h19 + 5.67961350386613 * u2_t1_h20 + 5.67961350386613 * u2_t3_h20 + 5.67961350386613 * u2_t4_h20 + 5.67961350386613 * u2_t6_h20 + 5.67961350386613 * u2_t7_h20 + 5.37976538528396 * u2_t1_h21 + 5.37976538528396 * u2_t3_h21 + 5.37976538528396 * u2_t6_h21 + 5.37976538528396 * u2_t7_h21 + 5.37976538528396 * u2_t8_h21 + 6.00384698407837 * u2_t1_h22 + 6.00384698407837 * u2_t3_h22 + 6.00384698407837 * u2_t7_h22 + 6.00384698407837 * u2_t8_h22 + 5.1866562335595 * u2_t3_h23 + 5.1866562335595 * u2_t7_h23 + 5.1866562335595 * u2_t8_h23;
0 <= u2_t1_h11 <= 1;
0 <= u2_t1_h12 <= 1;
0 <= u2_t1_h13 <= 1;
0 <= u2_t1_h14 <= 1;
0 <= u2_t1_h15 <= 1;
0 <= u2_t1_h16 <= 1;
0 <= u2_t1_h17 <= 1;
0 <= u2_t1_h18 <= 1;
0 <= u2_t1_h19 <= 1;
0 <= u2_t1_h20 <= 1;
0 <= u2_t1_h21 <= 1;
0 <= u2_t1_h22 <= 1;
u2_t1_h11 + u2_t1_h12 + u2_t1_h13 + u2_t1_h14 + u2_t1_h15 + u2_t1_h16 + u2_t1_h17 + u2_t1_h18 + u2_t1_h19 + u2_t1_h20 + u2_t1_h21 + u2_t1_h22 = 2;
0 <= u2_t2_h5 <= 1;
0 <= u2_t2_h6 <= 1;
0 <= u2_t2_h7 <= 1;
0 <= u2_t2_h8 <= 1;
0 <= u2_t2_h9 <= 1;
0 <= u2_t2_h10 <= 1;
0 <= u2_t2_h11 <= 1;
u2_t2_h5 + u2_t2_h6 + u2_t2_h7 + u2_t2_h8 + u2_t2_h9 + u2_t2_h10 + u2_t2_h11 = 2;
0 <= u2_t3_h5 <= 1;
0 <= u2_t3_h6 <= 1;
0 <= u2_t3_h7 <= 1;
0 <= u2_t3_h8 <= 1;
0 <= u2_t3_h9 <= 1;
0 <= u2_t3_h10 <= 1;
0 <= u2_t3_h11 <= 1;
0 <= u2_t3_h12 <= 1;
0 <= u2_t3_h13 <= 1;
0 <= u2_t3_h14 <= 1;
0 <= u2_t3_h15 <= 1;
0 <= u2_t3_h16 <= 1;
0 <= u2_t3_h17 <= 1;
0 <= u2_t3_h18 <= 1;
0 <= u2_t3_h19 <= 1;
0 <= u2_t3_h20 <= 1;
0 <= u2_t3_h21 <= 1;
0 <= u2_t3_h22 <= 1;
0 <= u2_t3_h23 <= 1;
u2_t3_h5 + u2_t3_h6 + u2_t3_h7 + u2_t3_h8 + u2_t3_h9 + u2_t3_h10 + u2_t3_h11 + u2_t3_h12 + u2_t3_h13 + u2_t3_h14 + u2_t3_h15 + u2_t3_h16 + u2_t3_h17 + u2_t3_h18 + u2_t3_h19 + u2_t3_h20 + u2_t3_h21 + u2_t3_h22 + u2_t3_h23 = 1;
0 <= u2_t4_h6 <= 1;
0 <= u2_t4_h7 <= 1;
0 <= u2_t4_h8 <= 1;
0 <= u2_t4_h9 <= 1;
0 <= u2_t4_h10 <= 1;
0 <= u2_t4_h11 <= 1;
0 <= u2_t4_h12 <= 1;
0 <= u2_t4_h13 <= 1;
0 <= u2_t4_h14 <= 1;
0 <= u2_t4_h15 <= 1;
0 <= u2_t4_h16 <= 1;
0 <= u2_t4_h17 <= 1;
0 <= u2_t4_h18 <= 1;
0 <= u2_t4_h19 <= 1;
0 <= u2_t4_h20 <= 1;
u2_t4_h6 + u2_t4_h7 + u2_t4_h8 + u2_t4_h9 + u2_t4_h10 + u2_t4_h11 + u2_t4_h12 + u2_t4_h13 + u2_t4_h14 + u2_t4_h15 + u2_t4_h16 + u2_t4_h17 + u2_t4_h18 + u2_t4_h19 + u2_t4_h20 = 3;
0 <= u2_t5_h19 <= 1;
u2_t5_h19 = 1;
0 <= u2_t6_h18 <= 1;
0 <= u2_t6_h19 <= 1;
0 <= u2_t6_h20 <= 1;
0 <= u2_t6_h21 <= 1;
u2_t6_h18 + u2_t6_h19 + u2_t6_h20 + u2_t6_h21 = 2;
0 <= u2_t7_h3 <= 1;
0 <= u2_t7_h4 <= 1;
0 <= u2_t7_h5 <= 1;
0 <= u2_t7_h6 <= 1;
0 <= u2_t7_h7 <= 1;
0 <= u2_t7_h8 <= 1;
0 <= u2_t7_h9 <= 1;
0 <= u2_t7_h10 <= 1;
0 <= u2_t7_h11 <= 1;
0 <= u2_t7_h12 <= 1;
0 <= u2_t7_h13 <= 1;
0 <= u2_t7_h14 <= 1;
0 <= u2_t7_h15 <= 1;
0 <= u2_t7_h16 <= 1;
0 <= u2_t7_h17 <= 1;
0 <= u2_t7_h18 <= 1;
0 <= u2_t7_h19 <= 1;
0 <= u2_t7_h20 <= 1;
0 <= u2_t7_h21 <= 1;
0 <= u2_t7_h22 <= 1;
0 <= u2_t7_h23 <= 1;
u2_t7_h3 + u2_t7_h4 + u2_t7_h5 + u2_t7_h6 + u2_t7_h7 + u2_t7_h8 + u2_t7_h9 + u2_t7_h10 + u2_t7_h11 + u2_t7_h12 + u2_t7_h13 + u2_t7_h14 + u2_t7_h15 + u2_t7_h16 + u2_t7_h17 + u2_t7_h18 + u2_t7_h19 + u2_t7_h20 + u2_t7_h21 + u2_t7_h22 + u2_t7_h23 = 3;
0 <= u2_t8_h21 <= 1;
0 <= u2_t8_h22 <= 1;
0 <= u2_t8_h23 <= 1;
u2_t8_h21 + u2_t8_h22 + u2_t8_h23 = 2;
0 <= u2_t9_h13 <= 1;
0 <= u2_t9_h14 <= 1;
0 <= u2_t9_h15 <= 1;
0 <= u2_t9_h16 <= 1;
0 <= u2_t9_h17 <= 1;
u2_t9_h13 + u2_t9_h14 + u2_t9_h15 + u2_t9_h16 + u2_t9_h17 = 1;
0 <= u2_t10_h6 <= 1;
0 <= u2_t10_h7 <= 1;
0 <= u2_t10_h8 <= 1;
0 <= u2_t10_h9 <= 1;
0 <= u2_t10_h10 <= 1;
0 <= u2_t10_h11 <= 1;
u2_t10_h6 + u2_t10_h7 + u2_t10_h8 + u2_t10_h9 + u2_t10_h10 + u2_t10_h11 = 2;
